(set-logic QF_NIA)
(set-option :produce-models true)
(declare-fun deposit (Int) Int)
(declare-fun k () Int)
(declare-fun price () Int)
(assert (= (deposit 0) 0))
(assert (= price 115))
(assert (= (deposit 22) price))
(assert (= k 22))
(assert (or  (= (deposit 1) (+ (deposit (- 1 1)) 5)) (= (deposit 1) (+ (deposit (- 1 1)) 10)) (= (deposit 1) (+ (deposit (- 1 1)) 25))))
(assert (or  (= (deposit 2) (+ (deposit (- 2 1)) 5)) (= (deposit 2) (+ (deposit (- 2 1)) 10)) (= (deposit 2) (+ (deposit (- 2 1)) 25))))
(assert (or  (= (deposit 3) (+ (deposit (- 3 1)) 5)) (= (deposit 3) (+ (deposit (- 3 1)) 10)) (= (deposit 3) (+ (deposit (- 3 1)) 25))))
(assert (or  (= (deposit 4) (+ (deposit (- 4 1)) 5)) (= (deposit 4) (+ (deposit (- 4 1)) 10)) (= (deposit 4) (+ (deposit (- 4 1)) 25))))
(assert (or  (= (deposit 5) (+ (deposit (- 5 1)) 5)) (= (deposit 5) (+ (deposit (- 5 1)) 10)) (= (deposit 5) (+ (deposit (- 5 1)) 25))))
(assert (or  (= (deposit 6) (+ (deposit (- 6 1)) 5)) (= (deposit 6) (+ (deposit (- 6 1)) 10)) (= (deposit 6) (+ (deposit (- 6 1)) 25))))
(assert (or  (= (deposit 7) (+ (deposit (- 7 1)) 5)) (= (deposit 7) (+ (deposit (- 7 1)) 10)) (= (deposit 7) (+ (deposit (- 7 1)) 25))))
(assert (or  (= (deposit 8) (+ (deposit (- 8 1)) 5)) (= (deposit 8) (+ (deposit (- 8 1)) 10)) (= (deposit 8) (+ (deposit (- 8 1)) 25))))
(assert (or  (= (deposit 9) (+ (deposit (- 9 1)) 5)) (= (deposit 9) (+ (deposit (- 9 1)) 10)) (= (deposit 9) (+ (deposit (- 9 1)) 25))))
(assert (or  (= (deposit 10) (+ (deposit (- 10 1)) 5)) (= (deposit 10) (+ (deposit (- 10 1)) 10)) (= (deposit 10) (+ (deposit (- 10 1)) 25))))
(assert (or  (= (deposit 11) (+ (deposit (- 11 1)) 5)) (= (deposit 11) (+ (deposit (- 11 1)) 10)) (= (deposit 11) (+ (deposit (- 11 1)) 25))))
(assert (or  (= (deposit 12) (+ (deposit (- 12 1)) 5)) (= (deposit 12) (+ (deposit (- 12 1)) 10)) (= (deposit 12) (+ (deposit (- 12 1)) 25))))
(assert (or  (= (deposit 13) (+ (deposit (- 13 1)) 5)) (= (deposit 13) (+ (deposit (- 13 1)) 10)) (= (deposit 13) (+ (deposit (- 13 1)) 25))))
(assert (or  (= (deposit 14) (+ (deposit (- 14 1)) 5)) (= (deposit 14) (+ (deposit (- 14 1)) 10)) (= (deposit 14) (+ (deposit (- 14 1)) 25))))
(assert (or  (= (deposit 15) (+ (deposit (- 15 1)) 5)) (= (deposit 15) (+ (deposit (- 15 1)) 10)) (= (deposit 15) (+ (deposit (- 15 1)) 25))))
(assert (or  (= (deposit 16) (+ (deposit (- 16 1)) 5)) (= (deposit 16) (+ (deposit (- 16 1)) 10)) (= (deposit 16) (+ (deposit (- 16 1)) 25))))
(assert (or  (= (deposit 17) (+ (deposit (- 17 1)) 5)) (= (deposit 17) (+ (deposit (- 17 1)) 10)) (= (deposit 17) (+ (deposit (- 17 1)) 25))))
(assert (or  (= (deposit 18) (+ (deposit (- 18 1)) 5)) (= (deposit 18) (+ (deposit (- 18 1)) 10)) (= (deposit 18) (+ (deposit (- 18 1)) 25))))
(assert (or  (= (deposit 19) (+ (deposit (- 19 1)) 5)) (= (deposit 19) (+ (deposit (- 19 1)) 10)) (= (deposit 19) (+ (deposit (- 19 1)) 25))))
(assert (or  (= (deposit 20) (+ (deposit (- 20 1)) 5)) (= (deposit 20) (+ (deposit (- 20 1)) 10)) (= (deposit 20) (+ (deposit (- 20 1)) 25))))
(assert (or  (= (deposit 21) (+ (deposit (- 21 1)) 5)) (= (deposit 21) (+ (deposit (- 21 1)) 10)) (= (deposit 21) (+ (deposit (- 21 1)) 25))))
(assert (or  (= (deposit 22) (+ (deposit (- 22 1)) 5)) (= (deposit 22) (+ (deposit (- 22 1)) 10)) (= (deposit 22) (+ (deposit (- 22 1)) 25))))

(check-sat)(get-model)